p edge 200 985
1 193
1 94
1 133
1 2
1 23
2 23
2 112
2 33
2 3
2 98
3 91
3 67
3 150
3 4
3 170
4 167
4 5
4 196
4 165
4 195
5 176
5 97
5 6
5 151
5 171
6 200
6 67
6 77
6 7
6 131
7 155
7 8
7 67
7 101
7 2
8 94
8 9
8 151
8 180
8 57
9 93
9 197
9 10
9 21
10 167
10 6
10 115
10 11
10 194
11 12
11 86
11 105
11 129
11 87
12 19
12 125
12 153
12 112
12 13
13 128
13 98
13 187
13 14
13 100
14 112
14 15
14 110
14 137
14 200
15 23
15 161
15 16
15 77
15 180
16 21
16 92
16 56
16 17
17 119
17 168
17 111
17 18
17 113
18 46
18 189
18 19
18 38
18 60
19 195
19 3
19 190
19 20
19 145
20 174
20 21
20 2
20 196
20 104
21 43
21 91
21 2
21 22
21 78
22 160
22 23
22 196
22 151
22 4
23 122
23 31
23 24
23 47
23 58
24 52
24 12
24 119
24 25
25 187
25 156
25 67
25 26
25 135
26 132
26 55
26 27
26 93
26 174
27 28
27 60
27 72
27 65
27 9
28 29
28 64
28 58
28 98
28 164
29 61
29 2
29 138
29 31
29 30
30 147
30 45
30 31
30 85
30 41
31 32
31 24
31 187
31 152
31 37
32 143
32 55
32 171
32 88
32 33
33 34
33 141
33 190
33 178
34 20
34 28
34 121
34 35
35 8
35 57
35 36
35 116
35 162
36 37
36 76
36 24
36 32
36 161
37 64
37 172
37 154
37 21
37 38
38 136
38 57
38 167
38 39
38 155
39 41
39 160
39 81
39 40
39 193
40 41
40 58
40 156
40 70
40 27
41 136
41 95
41 42
41 138
41 13
42 1
42 181
42 43
42 176
42 25
43 127
43 99
43 90
43 44
43 50
44 134
44 45
44 43
44 12
44 158
45 89
45 136
45 128
45 138
45 46
46 130
46 47
46 49
46 173
46 177
47 48
47 17
47 13
47 63
47 156
48 130
48 197
48 172
48 49
48 147
49 105
49 50
49 126
49 40
49 181
50 46
50 51
50 183
50 81
50 181
51 52
51 96
51 131
51 16
51 13
52 53
52 200
52 18
52 31
52 178
53 47
53 83
53 89
53 69
53 54
54 149
54 70
54 105
54 55
54 160
55 185
55 146
55 56
55 133
55 32
56 57
56 17
56 190
56 64
56 101
57 1
57 58
57 180
57 179
57 156
58 59
58 52
58 10
58 89
58 115
59 155
59 39
59 5
59 156
59 60
60 61
60 70
60 181
60 75
60 88
61 62
61 97
61 95
61 57
61 192
62 63
62 86
62 38
62 193
63 23
63 158
63 181
63 90
63 64
64 27
64 65
64 198
64 166
65 158
65 110
65 66
65 121
65 192
66 48
66 151
66 67
66 6
66 105
67 43
67 13
67 95
67 53
67 68
68 161
68 69
68 2
68 155
68 25
69 70
69 159
69 124
69 184
69 187
70 186
70 116
70 71
70 155
70 190
71 103
71 190
71 70
71 26
71 72
72 16
72 85
72 150
72 73
72 188
73 44
73 148
73 170
73 74
73 33
74 75
74 12
74 160
74 120
74 173
75 61
75 76
75 112
75 21
75 163
76 187
76 77
76 93
76 97
76 124
77 137
77 115
77 146
77 102
77 78
78 158
78 83
78 128
78 79
78 96
79 40
79 89
79 158
79 82
79 80
80 79
80 157
80 81
80 148
80 138
81 166
81 82
81 46
81 184
81 44
82 154
82 122
82 116
82 83
82 43
83 163
83 161
83 141
83 170
83 84
84 168
84 85
84 198
84 155
84 183
85 86
85 24
85 33
85 95
85 40
86 87
86 176
86 155
86 41
86 36
87 71
87 82
87 139
87 125
87 88
88 147
88 89
88 134
88 101
88 195
89 90
89 120
89 31
89 53
89 198
90 91
90 73
90 30
90 197
90 58
91 15
91 111
91 92
91 145
91 47
92 195
92 93
92 44
92 164
92 184
93 15
93 186
93 94
93 77
93 58
94 69
94 188
94 192
94 95
94 187
95 68
95 96
95 97
95 30
95 114
96 21
96 58
96 123
96 178
96 97
97 180
97 98
97 175
97 136
97 119
98 125
98 4
98 34
98 99
98 178
99 63
99 124
99 169
99 100
99 92
100 21
100 101
100 138
100 103
100 95
101 152
101 136
101 102
101 59
101 35
102 103
102 135
102 38
102 64
102 28
103 26
103 180
103 12
103 105
103 104
104 153
104 105
104 194
104 181
104 100
105 170
105 106
105 99
105 162
105 194
106 22
106 128
106 7
106 107
106 35
107 55
107 101
107 29
107 19
107 108
108 168
108 25
108 49
108 158
108 109
109 146
109 22
109 110
109 26
110 105
110 182
110 157
110 194
110 111
111 21
111 51
111 81
111 16
111 112
112 113
112 95
112 47
112 109
112 136
113 114
113 174
113 17
113 96
113 47
114 60
114 115
114 193
114 105
114 18
115 92
115 116
115 61
115 95
115 187
116 179
116 191
116 69
116 117
117 169
117 75
117 21
117 118
117 14
118 31
118 105
118 119
118 183
118 157
119 28
119 120
119 148
119 57
119 105
120 109
120 147
120 2
120 121
120 19
121 122
121 19
121 88
121 180
121 78
122 123
122 199
122 189
122 8
122 88
123 124
123 109
123 125
123 107
123 167
124 191
124 125
124 161
124 162
124 197
125 13
125 41
125 126
125 135
125 30
126 81
126 134
126 127
126 159
126 152
127 22
127 48
127 69
127 109
127 128
128 80
128 185
128 110
128 129
128 157
129 130
129 61
129 177
129 53
129 26
130 131
130 180
130 12
130 144
130 126
131 94
131 78
131 132
131 113
131 187
132 63
132 73
132 133
132 124
132 68
133 174
133 68
133 134
133 73
133 25
134 80
134 117
134 152
134 184
134 135
135 26
135 136
135 89
135 15
135 146
136 137
136 23
136 95
136 71
136 135
137 37
137 103
137 74
137 138
137 151
138 47
138 13
138 139
138 90
138 72
139 189
139 130
139 140
139 111
139 46
140 141
140 48
140 186
140 74
140 131
141 149
141 42
141 142
141 17
141 60
142 188
142 76
142 143
142 65
142 12
143 200
143 144
143 121
143 107
143 193
144 44
144 103
144 59
144 176
144 145
145 4
145 53
145 146
145 88
146 147
146 48
146 97
146 78
146 142
147 148
147 157
147 72
147 127
147 57
148 44
148 114
148 149
148 137
148 59
149 186
149 3
149 86
149 80
149 150
150 38
150 200
150 151
150 55
150 113
151 123
151 78
151 152
151 200
151 103
152 90
152 153
152 168
152 64
152 200
153 172
153 154
153 156
153 68
154 155
154 156
154 23
154 143
154 86
155 171
155 175
155 188
155 156
155 162
156 34
156 162
156 157
156 189
156 63
157 175
157 161
157 138
157 96
157 158
158 38
158 159
158 86
158 143
158 151
159 160
159 181
159 89
159 94
159 71
160 33
160 103
160 161
160 76
160 130
161 26
161 162
161 77
161 105
161 156
162 155
162 163
162 85
162 51
162 12
163 131
163 30
163 164
163 101
163 152
164 166
164 61
164 58
164 77
164 165
165 147
165 153
165 70
165 166
165 127
166 114
166 56
166 126
166 167
166 60
167 168
167 21
167 171
167 149
167 133
168 169
168 132
168 155
168 86
168 141
169 170
169 7
169 76
169 94
169 110
170 79
170 155
170 171
170 86
170 136
171 172
171 178
171 34
171 113
171 60
172 33
172 173
172 3
172 88
172 20
173 2
173 174
173 12
173 144
173 121
174 56
174 38
174 84
174 133
174 175
175 178
175 176
175 124
175 146
175 171
176 39
176 54
176 177
176 99
177 158
177 99
177 178
177 115
177 122
178 125
178 41
178 187
178 99
178 179
179 175
179 180
179 114
179 166
179 109
180 89
180 67
180 181
180 137
180 37
181 52
181 182
181 89
181 4
181 141
182 192
182 139
182 183
182 53
183 184
183 11
183 56
183 152
183 170
184 80
184 114
184 185
184 83
184 142
185 186
185 159
185 145
185 154
185 82
186 131
186 10
186 184
186 174
186 187
187 40
187 25
187 86
187 188
187 110
188 50
188 189
188 164
188 29
188 85
189 47
189 190
189 200
189 199
189 50
190 128
190 149
190 168
190 191
190 47
191 192
191 109
191 174
191 71
191 160
192 52
192 146
192 193
192 177
192 41
193 12
193 77
193 194
193 20
194 195
194 164
194 27
194 117
194 69
195 196
195 133
195 84
195 187
195 157
196 22
196 197
196 154
196 7
196 174
197 198
197 138
197 146
197 111
197 35
198 15
198 154
198 199
198 192
199 94
199 72
199 28
199 41
199 200
200 11
200 1
200 112
200 39
200 69
